c This is an instance of the exact track of PACE 2020 Challenge, see https://pacechallenge.org/2020/ 
c TYPE: infrastructure 
c ORIGIN: Open street maps 
c DESCRIPTION: Chomiąża (Poland): a road network downloaded from open street maps using osmnx Python package 
p tdp 60 72
1 45
1 17
2 15
2 20
2 59
3 6
4 60
5 9
5 37
5 10
6 20
6 10
7 60
7 41
7 33
8 31
9 58
9 13
10 48
11 57
12 41
12 36
12 60
14 44
14 45
14 42
15 52
16 23
17 31
17 34
18 27
18 20
18 25
19 54
19 55
19 48
19 57
21 26
22 23
23 47
24 28
24 50
24 43
25 53
25 29
26 54
26 28
27 49
28 39
29 49
30 41
31 52
31 35
32 59
33 48
33 38
34 52
34 58
36 47
37 39
37 57
38 40
39 44
42 50
42 56
43 50
43 44
46 56
51 55
52 59
54 55
58 59
